c File: flat50_3_0.col
c
c SOURCE: Joseph Culberson (joe@cs.ualberta.ca)
c DESCRIPTION: Quasi-random coloring problem
c              generated with flatness = 0
c                             probability = 0.139
c                             known coloring = 3
c                             random seed = 1947
c              Creation Date:  Tue Jun  9 12:21:51 1998
c Maximum degree = 8 Minimum degree = 1
c p edge 50 115
c cnf created by edge2cnf
p cnf 150 545
-1 -2 0
-1 -3 0
-2 -3 0
1 2 3 0
-4 -5 0
-4 -6 0
-5 -6 0
4 5 6 0
-7 -8 0
-7 -9 0
-8 -9 0
7 8 9 0
-10 -11 0
-10 -12 0
-11 -12 0
10 11 12 0
-13 -14 0
-13 -15 0
-14 -15 0
13 14 15 0
-16 -17 0
-16 -18 0
-17 -18 0
16 17 18 0
-19 -20 0
-19 -21 0
-20 -21 0
19 20 21 0
-22 -23 0
-22 -24 0
-23 -24 0
22 23 24 0
-25 -26 0
-25 -27 0
-26 -27 0
25 26 27 0
-28 -29 0
-28 -30 0
-29 -30 0
28 29 30 0
-31 -32 0
-31 -33 0
-32 -33 0
31 32 33 0
-34 -35 0
-34 -36 0
-35 -36 0
34 35 36 0
-37 -38 0
-37 -39 0
-38 -39 0
37 38 39 0
-40 -41 0
-40 -42 0
-41 -42 0
40 41 42 0
-43 -44 0
-43 -45 0
-44 -45 0
43 44 45 0
-46 -47 0
-46 -48 0
-47 -48 0
46 47 48 0
-49 -50 0
-49 -51 0
-50 -51 0
49 50 51 0
-52 -53 0
-52 -54 0
-53 -54 0
52 53 54 0
-55 -56 0
-55 -57 0
-56 -57 0
55 56 57 0
-58 -59 0
-58 -60 0
-59 -60 0
58 59 60 0
-61 -62 0
-61 -63 0
-62 -63 0
61 62 63 0
-64 -65 0
-64 -66 0
-65 -66 0
64 65 66 0
-67 -68 0
-67 -69 0
-68 -69 0
67 68 69 0
-70 -71 0
-70 -72 0
-71 -72 0
70 71 72 0
-73 -74 0
-73 -75 0
-74 -75 0
73 74 75 0
-76 -77 0
-76 -78 0
-77 -78 0
76 77 78 0
-79 -80 0
-79 -81 0
-80 -81 0
79 80 81 0
-82 -83 0
-82 -84 0
-83 -84 0
82 83 84 0
-85 -86 0
-85 -87 0
-86 -87 0
85 86 87 0
-88 -89 0
-88 -90 0
-89 -90 0
88 89 90 0
-91 -92 0
-91 -93 0
-92 -93 0
91 92 93 0
-94 -95 0
-94 -96 0
-95 -96 0
94 95 96 0
-97 -98 0
-97 -99 0
-98 -99 0
97 98 99 0
-100 -101 0
-100 -102 0
-101 -102 0
100 101 102 0
-103 -104 0
-103 -105 0
-104 -105 0
103 104 105 0
-106 -107 0
-106 -108 0
-107 -108 0
106 107 108 0
-109 -110 0
-109 -111 0
-110 -111 0
109 110 111 0
-112 -113 0
-112 -114 0
-113 -114 0
112 113 114 0
-115 -116 0
-115 -117 0
-116 -117 0
115 116 117 0
-118 -119 0
-118 -120 0
-119 -120 0
118 119 120 0
-121 -122 0
-121 -123 0
-122 -123 0
121 122 123 0
-124 -125 0
-124 -126 0
-125 -126 0
124 125 126 0
-127 -128 0
-127 -129 0
-128 -129 0
127 128 129 0
-130 -131 0
-130 -132 0
-131 -132 0
130 131 132 0
-133 -134 0
-133 -135 0
-134 -135 0
133 134 135 0
-136 -137 0
-136 -138 0
-137 -138 0
136 137 138 0
-139 -140 0
-139 -141 0
-140 -141 0
139 140 141 0
-142 -143 0
-142 -144 0
-143 -144 0
142 143 144 0
-145 -146 0
-145 -147 0
-146 -147 0
145 146 147 0
-148 -149 0
-148 -150 0
-149 -150 0
148 149 150 0
-64 -1 0
-65 -2 0
-66 -3 0
-97 -1 0
-98 -2 0
-99 -3 0
-124 -1 0
-125 -2 0
-126 -3 0
-55 -4 0
-56 -5 0
-57 -6 0
-64 -4 0
-65 -5 0
-66 -6 0
-91 -4 0
-92 -5 0
-93 -6 0
-139 -4 0
-140 -5 0
-141 -6 0
-142 -4 0
-143 -5 0
-144 -6 0
-58 -7 0
-59 -8 0
-60 -9 0
-67 -7 0
-68 -8 0
-69 -9 0
-127 -7 0
-128 -8 0
-129 -9 0
-67 -10 0
-68 -11 0
-69 -12 0
-79 -10 0
-80 -11 0
-81 -12 0
-94 -10 0
-95 -11 0
-96 -12 0
-100 -10 0
-101 -11 0
-102 -12 0
-112 -10 0
-113 -11 0
-114 -12 0
-118 -10 0
-119 -11 0
-120 -12 0
-121 -10 0
-122 -11 0
-123 -12 0
-130 -10 0
-131 -11 0
-132 -12 0
-85 -13 0
-86 -14 0
-87 -15 0
-115 -13 0
-116 -14 0
-117 -15 0
-124 -13 0
-125 -14 0
-126 -15 0
-148 -13 0
-149 -14 0
-150 -15 0
-67 -16 0
-68 -17 0
-69 -18 0
-73 -16 0
-74 -17 0
-75 -18 0
-76 -16 0
-77 -17 0
-78 -18 0
-97 -16 0
-98 -17 0
-99 -18 0
-115 -16 0
-116 -17 0
-117 -18 0
-121 -16 0
-122 -17 0
-123 -18 0
-139 -16 0
-140 -17 0
-141 -18 0
-145 -16 0
-146 -17 0
-147 -18 0
-76 -19 0
-77 -20 0
-78 -21 0
-85 -19 0
-86 -20 0
-87 -21 0
-91 -19 0
-92 -20 0
-93 -21 0
-118 -19 0
-119 -20 0
-120 -21 0
-124 -19 0
-125 -20 0
-126 -21 0
-136 -19 0
-137 -20 0
-138 -21 0
-139 -19 0
-140 -20 0
-141 -21 0
-58 -22 0
-59 -23 0
-60 -24 0
-109 -22 0
-110 -23 0
-111 -24 0
-118 -22 0
-119 -23 0
-120 -24 0
-130 -22 0
-131 -23 0
-132 -24 0
-142 -22 0
-143 -23 0
-144 -24 0
-58 -25 0
-59 -26 0
-60 -27 0
-64 -25 0
-65 -26 0
-66 -27 0
-70 -25 0
-71 -26 0
-72 -27 0
-82 -25 0
-83 -26 0
-84 -27 0
-127 -25 0
-128 -26 0
-129 -27 0
-145 -25 0
-146 -26 0
-147 -27 0
-52 -28 0
-53 -29 0
-54 -30 0
-118 -28 0
-119 -29 0
-120 -30 0
-142 -28 0
-143 -29 0
-144 -30 0
-148 -28 0
-149 -29 0
-150 -30 0
-52 -31 0
-53 -32 0
-54 -33 0
-58 -31 0
-59 -32 0
-60 -33 0
-91 -31 0
-92 -32 0
-93 -33 0
-61 -34 0
-62 -35 0
-63 -36 0
-67 -34 0
-68 -35 0
-69 -36 0
-79 -34 0
-80 -35 0
-81 -36 0
-142 -34 0
-143 -35 0
-144 -36 0
-55 -37 0
-56 -38 0
-57 -39 0
-88 -37 0
-89 -38 0
-90 -39 0
-100 -37 0
-101 -38 0
-102 -39 0
-124 -37 0
-125 -38 0
-126 -39 0
-127 -37 0
-128 -38 0
-129 -39 0
-130 -37 0
-131 -38 0
-132 -39 0
-136 -37 0
-137 -38 0
-138 -39 0
-55 -40 0
-56 -41 0
-57 -42 0
-79 -40 0
-80 -41 0
-81 -42 0
-88 -40 0
-89 -41 0
-90 -42 0
-76 -43 0
-77 -44 0
-78 -45 0
-133 -43 0
-134 -44 0
-135 -45 0
-139 -43 0
-140 -44 0
-141 -45 0
-148 -43 0
-149 -44 0
-150 -45 0
-94 -46 0
-95 -47 0
-96 -48 0
-52 -49 0
-53 -50 0
-54 -51 0
-106 -49 0
-107 -50 0
-108 -51 0
-103 -52 0
-104 -53 0
-105 -54 0
-109 -52 0
-110 -53 0
-111 -54 0
-115 -52 0
-116 -53 0
-117 -54 0
-142 -52 0
-143 -53 0
-144 -54 0
-103 -55 0
-104 -56 0
-105 -57 0
-136 -55 0
-137 -56 0
-138 -57 0
-130 -58 0
-131 -59 0
-132 -60 0
-109 -61 0
-110 -62 0
-111 -63 0
-130 -61 0
-131 -62 0
-132 -63 0
-145 -61 0
-146 -62 0
-147 -63 0
-121 -64 0
-122 -65 0
-123 -66 0
-133 -64 0
-134 -65 0
-135 -66 0
-139 -67 0
-140 -68 0
-141 -69 0
-139 -70 0
-140 -71 0
-141 -72 0
-145 -73 0
-146 -74 0
-147 -75 0
-109 -76 0
-110 -77 0
-111 -78 0
-112 -76 0
-113 -77 0
-114 -78 0
-139 -76 0
-140 -77 0
-141 -78 0
-109 -79 0
-110 -80 0
-111 -81 0
-130 -79 0
-131 -80 0
-132 -81 0
-133 -79 0
-134 -80 0
-135 -81 0
-142 -79 0
-143 -80 0
-144 -81 0
-112 -82 0
-113 -83 0
-114 -84 0
-118 -82 0
-119 -83 0
-120 -84 0
-127 -82 0
-128 -83 0
-129 -84 0
-124 -85 0
-125 -86 0
-126 -87 0
-142 -85 0
-143 -86 0
-144 -87 0
-148 -85 0
-149 -86 0
-150 -87 0
-133 -91 0
-134 -92 0
-135 -93 0
-136 -91 0
-137 -92 0
-138 -93 0
-139 -91 0
-140 -92 0
-141 -93 0
-103 -94 0
-104 -95 0
-105 -96 0
-106 -94 0
-107 -95 0
-108 -96 0
-130 -97 0
-131 -98 0
-132 -99 0
-148 -97 0
-149 -98 0
-150 -99 0
-121 -100 0
-122 -101 0
-123 -102 0
-124 -100 0
-125 -101 0
-126 -102 0
-133 -100 0
-134 -101 0
-135 -102 0
